[1122500, 1122500, 1100800, 1100800, 1100800, 1100800, 1100800, 1100800, 1100800, 1100800, 1100800, 1100800, 1100800, 1100800, 1100800, 1100800, 1100800, 1100800, 1100800, 1100800, 1100800, 1100800, 1100800, 1100800, 1100800, 1100800, 1100800, 1100800, 1100800, 1100800, 1100800, 1100800, 1100800, 1100800, 1100800, 1100800, 1100800, 1100800, 1100800, 1100800, 1100800, 1100800, 1100800, 1100800, 1100800, 1100800, 1100800, 1100800, 1100800, 1100800, 1100800, 1100800, 1100800, 1100800, 1100800, 1100800, 1100800, 1100800, 1100800, 1100800, 1100800, 1100800, 1100800, 1092800, 1092800, 1092800, 1092800, 1092800, 1092800, 1092800, 1092800, 1092800, 1092800, 1092800, 1092800, 1092800, 1092800, 1092800, 1092800, 1079400, 1079400, 1079400, 1079400, 1079400, 1079400, 1079400, 1079400, 1067200, 1067200, 1067200, 1067200, 1067200, 1067200, 1067200, 1067200, 1067200, 1067200, 1067200, 1065500, 1054800, 1054800, 1051100, 1020300, 1020300, 1020300, 1020300, 1020300, 1020300, 1015300, 1004100, 1004100, 999000, 999000, 992000, 992000, 992000, 992000, 992000, 980900, 980900, 979200, 971400, 971400, 971400, 971400, 971400, 970300, 970300, 970300, 970300, 970300, 968400, 968400, 968400, 968000, 968000, 968000, 968000, 965600, 965600, 958400, 923900, 923900, 923900, 923900, 923900, 923900, 923900, 923900, 923900, 923900, 923900, 923900, 923900, 923900, 923900, 923900, 923900, 923900, 923900, 923900, 923900, 923900, 923900, 923900, 923900, 923900, 923900, 923900, 923900, 923900, 923900, 892300, 892300, 892300, 892300, 892300, 892300, 892300, 892300, 892300, 892300, 892300, 892300, 892300, 892300, 892300, 892300, 892300, 892300, 892300, 892300, 892300, 892300, 892300, 892300, 892300, 892300, 892300, 892300, 892300, 892300, 892300, 892300, 892300, 892300, 892300, 892300, 892300, 892300, 892300, 892300, 892300, 892300, 892300, 892300, 892300, 892300, 892300, 892300, 892300, 892300, 892300, 892300, 892300, 892300, 892300, 892300, 892300, 892300, 892300, 892300, 892300, 892300, 892300, 892300, 892300, 892300, 892300, 892300, 892300, 892300, 892300, 892300, 892300, 892300, 892300, 892300, 892300, 889000, 889000, 889000, 889000, 889000, 889000, 889000, 889000, 889000, 889000, 889000, 889000, 889000, 889000, 889000, 889000, 889000, 889000, 879600, 879600, 879600, 879600, 879600, 879600, 879600, 879600, 879600, 879600, 879600, 879600, 879600, 879600, 879600, 879600, 879600, 879600, 879600, 879600, 879600, 879600, 879600, 879600, 879600, 879600, 879600, 879600, 879600, 879600, 879600, 879600, 879600, 879600, 879600, 879600, 879600, 879600, 879600, 879600, 879600, 879600, 879600, 879600, 879600, 879600, 879600, 879600, 879600, 879600, 879600, 879600, 879600, 879600, 879600, 879600, 879600, 879600, 879600, 879600, 879600, 879600, 879600, 879600, 879600, 879600, 879600, 879600, 879600, 879600, 879600, 879600, 879600, 879600, 879600, 879600, 879600, 879600, 879600, 879600, 879600, 879600, 879600, 879600, 879600, 879600, 879600, 879600, 879600, 879600, 879600, 879600, 879600, 879600, 879600, 879600, 879600, 879600, 879600, 879600, 879600, 879600, 879600, 879600, 879600, 879600, 879600, 879600, 879600, 879600, 879600, 879600, 879600, 879600, 879600, 879600, 879600, 879600, 879600, 879600, 879600, 879600, 879600, 879600, 879600, 879600, 879600, 879600, 879600, 879600, 879600, 879600, 879600, 879600, 879600, 879600, 879600, 879600, 879600, 879600, 879600, 879600, 879600, 879600, 879600, 879600, 879600, 879600, 879600, 879600, 879600, 879600, 879600, 879600, 879600, 879600, 879600, 879600, 879600, 879600, 879600, 879600, 879600, 879600, 879600, 879600, 879600, 879600, 879600, 879600, 879600, 879600, 879600, 879600, 879600, 879600, 879600, 879600, 879600, 879600, 879600, 879600, 879600, 879600, 879600, 879600, 879600, 879600, 879600, 879600, 879600, 879600, 879600, 879600, 879600, 879600, 879600, 879600, 879600, 879600, 879600, 879600, 879600, 879600, 879600, 879600, 879600, 879600, 879600, 879600, 879600, 879600, 879600, 879600, 879600, 879600, 879600, 879600, 879600, 879600, 879600, 879600, 879600, 879600, 879600, 879600, 879600, 879600, 879600, 879600, 879600, 879600, 879600, 879600, 879600, 879600, 879600, 879600, 879600, 879600, 879600, 879600, 879600, 879600, 879600, 879600, 879600, 879600, 879600, 879600, 879600, 879600, 879600, 879600, 879600, 879600, 879600, 879600, 879600, 879600, 879600, 879600, 879600, 879600, 879600, 879600, 879600, 879600, 879600, 879600, 879600, 879600, 879600, 879600, 879600, 879600, 879600, 879600, 879600, 879600, 879600, 879600, 879600, 879600, 879600, 879600, 879600, 879600, 879600, 879600, 879600, 879600, 879600, 879600, 879600, 879600, 879600, 879600, 879600, 879600, 879600, 879600, 879600, 879600, 879600, 879600, 879600, 879600, 879600, 879600, 879600, 879600, 879300, 879300, 879300, 879300, 879300, 879300, 879300, 879300, 879300, 879300, 879300, 879300, 879300, 879300, 879300, 879300, 879300, 879300, 879300, 879300, 879300, 879300, 879300, 879300, 879300, 879300, 879300, 879300, 879300, 879300, 879300, 879300, 879300, 879300, 879300, 879300, 879300, 879300, 879300, 879300, 879300, 879300, 879300, 879300, 879300, 879300, 879300, 879300, 879300, 879300, 879300, 879300, 879300, 879300, 879300, 879300, 879300, 879300, 879300, 879300, 879300, 879300, 879300, 879300, 879300, 879300, 879300, 879300, 879300, 879300, 879300, 879300, 879300, 879300, 879300, 879300, 879300, 879300, 879300, 879300, 879300, 879300, 879300, 879300, 879300, 879300, 879300, 879300, 879300, 879300, 879300, 879300, 879300, 879300, 879300, 879300, 879300, 879300, 879300, 879300, 879300, 879300, 879300, 879300, 879300, 879300, 879300, 879300, 879300, 879300, 879300, 879300, 879300, 879300, 879300, 879300, 879300, 879300, 879300, 879300, 879300, 879300, 879300, 879300, 879300, 879300, 879300, 879300, 879300, 879300, 879300, 879300, 879300, 879300, 879300, 879300, 879300, 879300, 879300, 879300, 879300, 879300, 879300, 879300, 879300, 879300, 879300, 879300, 879300, 879300, 879300, 879300, 879300, 879300, 879300, 879300, 879300, 879300, 879300, 879300, 879300, 879300, 879300, 879300, 879300, 879300, 879300, 879300, 879300, 879300, 879300, 879300, 879300, 879300, 879300, 879300, 879300, 879300, 879300, 879300, 879300, 879300, 879300, 879300, 879300, 879300, 879300, 879300, 879300, 879300, 879300, 879300, 879300, 879300, 879300, 879300, 879300, 879300, 879300, 879300, 879300, 879300, 879300, 879300, 879300, 879300, 879300, 879300, 879300, 879300, 879300, 879300, 879300, 879300, 879300, 879300, 879300, 879300, 879300, 879300, 879300, 879300, 879300, 879300, 879300, 879300, 879300, 879300, 879300, 879300, 879300, 879300, 879300, 879300, 879300, 879300, 879300, 879300, 879300, 879300, 879300, 879300, 879300, 879300, 879300, 879300, 879300, 879300, 879300, 879300, 879300, 879300, 879300, 879300, 879300, 879300, 879300, 879300, 879300, 879300, 879300, 879300, 879300, 879300, 879300, 879300, 879300, 879300, 879300, 879300, 879300, 879300, 879300, 879300, 879300, 879300, 879300, 879300, 879300, 879300, 879300, 879300, 879300, 879300, 879300, 879300, 879300, 879300, 879300, 879300, 879300, 879300, 879300, 879300, 879300, 879300, 879300, 879300, 879300, 879300, 879300, 879300, 879300, 879300, 879300, 879300, 879300, 879300, 879300, 879300, 879300, 879300, 879300, 879300, 879300, 879300, 879300, 879300, 879300, 879300, 879300, 879300, 879300, 879300, 879300, 879300, 879300, 879300, 879300, 879300, 879300, 879300, 879300, 879300, 879300, 879300, 879300, 879300, 879300, 879300, 879300, 879300, 879300, 879300, 879300, 879300, 879300, 879300, 879300, 879300, 879300, 879300, 879300, 879300, 879300, 879300, 879300, 879300, 879300, 879300, 879300, 879300, 879300, 879300, 879300, 879300, 879300, 879300, 879300, 879300, 879300, 879300, 879300, 879300, 879300, 879300, 879300, 879300, 879300, 879300, 879300, 879300, 879300, 879300, 879300, 879300, 879300, 879300, 879300, 879300, 879300, 879300, 879300, 879300, 879300, 879300, 879300, 879300, 879300, 879300, 879300, 879300, 879300, 879300, 879300, 879300, 879300, 879300, 879300, 879300, 879300, 879300, 879300, 879300, 879300, 879300, 879300, 879300, 879300, 879300, 879300]
